c FILE: 20_noeuds.col
c DESCRIPTION: Graphe non oriente a 20 noeuds, connexe (40 aretes au total).
c V=20, E=40
c
p edge 20 40
e 1 2
e 2 3
e 3 4
e 4 5
e 5 6
e 6 7
e 7 8
e 8 9
e 9 10
e 10 11
e 11 12
e 12 13
e 13 14
e 14 15
e 15 16
e 16 17
e 17 18
e 18 19
e 19 20
e 1 4
e 2 15
e 3 17
e 4 20
e 5 1
e 6 12
e 7 13
e 8 18
e 9 1
e 10 2
e 11 3
e 12 4
e 13 5
e 14 6
e 15 7
e 16 8
e 17 9
e 18 10
e 19 11
e 20 12
e 20 1
e 1 20
